c description: Random 3-CNF over 21 variables and 89 clauses
c generator: CNFgen (0.9.2)
c copyright: (C) 2012-2022 Massimo Lauria <massimo.lauria@uniroma1.it>
c url: https://massimolauria.net/cnfgen
c command line: cnfgen --output CNF_4.28/21_bit_89_685.cnf randkcnf 3 21 89
c
p cnf 21 89
-13 15 -18 0
-4 -7 -9 0
-8 10 11 0
-1 -5 12 0
14 17 -20 0
-11 -18 21 0
-4 -10 -20 0
-5 -11 13 0
-1 -16 21 0
4 8 9 0
-1 6 14 0
-1 -7 13 0
-5 -13 -21 0
8 12 13 0
9 -12 15 0
5 7 8 0
6 -7 -16 0
-4 9 13 0
-4 -5 -18 0
2 -9 14 0
3 16 18 0
-1 3 -7 0
-9 -11 -13 0
4 5 12 0
-9 -12 15 0
-1 10 14 0
-1 15 -18 0
-11 12 21 0
11 -13 -19 0
-5 15 21 0
4 8 -14 0
-1 -2 17 0
8 -13 14 0
3 7 14 0
4 -6 20 0
3 17 18 0
11 13 -20 0
4 15 -18 0
3 13 -16 0
5 -18 -19 0
-6 -13 15 0
2 14 -21 0
4 9 11 0
-12 -19 20 0
-6 -7 -10 0
-4 -11 -16 0
7 17 18 0
4 18 20 0
10 14 -19 0
-5 8 10 0
9 -10 -11 0
6 -10 -19 0
-17 18 20 0
-6 9 12 0
-4 9 -11 0
-18 19 -21 0
2 5 -13 0
-3 10 -12 0
-1 15 21 0
8 11 -16 0
6 11 16 0
2 -3 17 0
-5 10 16 0
4 8 19 0
-14 -18 20 0
7 -15 16 0
6 -17 21 0
4 19 -21 0
9 -10 -17 0
3 -11 15 0
-1 9 16 0
-1 -7 -10 0
6 -10 18 0
-12 15 16 0
1 -2 4 0
2 -19 21 0
1 -6 -7 0
-4 -5 -19 0
1 -8 19 0
2 13 -18 0
2 14 20 0
8 -13 -15 0
-15 16 17 0
3 10 15 0
-5 -10 11 0
-4 -13 17 0
-3 10 -15 0
5 -14 21 0
1 2 18 0
